\ Model qp
\ LP format - for model browsing. Use MPS format to capture full model detail.
Minimize
  - 1.0775231338047907e+61 F + [ 2 F ^2 + 2000 a0 ^2 ] / 2 
Subject To
 R115: 1.013752995037515 F + 17.7897740956241 a0 >= 32.0480944801284
Bounds
 F <= 27.8604
 1 <= a0 <= 1e+06
End
